35612 40569 
34915 40656 
34440 40681 
36105 40430 
36201 40426 
35307 40628 
35708 40534 
34928 40649 
36634 40354 
38217 39656 
38152 39697 
37001 40135 
37418 40017 
37925 39806 
38014 39744 
38613 39510 
37829 39847 
38548 39551 
37764 39888 
36878 40190 
37274 40044 
37675 39950 
37537 39997 
38790 39458 
38423 39620 
40025 38523 
38928 39411 
37149 40113 
37238 40051 
39524 38936 
